Instance Name : r109
Date : 2022-07-18
Solution
Route 1 : 31 19 47 49 36 46 48
Route 2 : 53
Route 3 : 95 92 98 44 38 14 43 97 13 58
Route 4 : 2 42 15 57 87 94 6 96
Route 5 : 5 83 8 45 84 17 60 89
Route 6 : 72 75 23 67 39 25 55 54 24 80
Route 7 : 40 21 73 22 41 74 56 4
Route 8 : 12 29 78 79 3 50 26
Route 9 : 62 11 64 63 90 32 10 70
Route 10 : 59 99 85 61 16 86 91 37 100 93
Route 11 : 52 88 7 82 18
Route 12 : 28 76 33 81 9 35 34 68 77
Route 13 : 27 69 30 51 71 65 66 20 1
